p edge 100 1485
e 1 2
e 1 3
e 1 7
e 1 11
e 1 12
e 1 14
e 1 15
e 1 17
e 1 18
e 1 21
e 1 25
e 1 30
e 1 33
e 1 37
e 1 40
e 1 46
e 1 47
e 1 51
e 1 54
e 1 59
e 1 60
e 1 64
e 1 66
e 1 67
e 1 68
e 1 69
e 1 70
e 1 71
e 1 74
e 1 83
e 1 89
e 1 96
e 1 97
e 2 5
e 2 7
e 2 9
e 2 10
e 2 12
e 2 18
e 2 19
e 2 24
e 2 26
e 2 31
e 2 33
e 2 35
e 2 37
e 2 39
e 2 47
e 2 50
e 2 51
e 2 54
e 2 57
e 2 61
e 2 77
e 2 83
e 2 84
e 2 85
e 2 92
e 2 94
e 2 97
e 2 99
e 2 100
e 3 11
e 3 12
e 3 15
e 3 18
e 3 21
e 3 32
e 3 33
e 3 35
e 3 36
e 3 46
e 3 48
e 3 49
e 3 50
e 3 55
e 3 59
e 3 62
e 3 63
e 3 64
e 3 65
e 3 66
e 3 69
e 3 74
e 3 75
e 3 82
e 3 84
e 3 86
e 3 90
e 3 93
e 3 95
e 3 97
e 3 100
e 4 12
e 4 13
e 4 16
e 4 24
e 4 26
e 4 30
e 4 38
e 4 40
e 4 41
e 4 48
e 4 51
e 4 52
e 4 64
e 4 65
e 4 66
e 4 68
e 4 70
e 4 71
e 4 74
e 4 78
e 4 79
e 4 84
e 4 89
e 4 93
e 4 98
e 5 7
e 5 8
e 5 11
e 5 14
e 5 17
e 5 20
e 5 21
e 5 24
e 5 29
e 5 40
e 5 42
e 5 46
e 5 52
e 5 54
e 5 57
e 5 59
e 5 60
e 5 61
e 5 66
e 5 68
e 5 74
e 5 75
e 5 78
e 5 80
e 5 82
e 5 85
e 5 88
e 5 91
e 5 92
e 5 95
e 5 97
e 6 8
e 6 14
e 6 16
e 6 17
e 6 19
e 6 26
e 6 29
e 6 31
e 6 33
e 6 35
e 6 36
e 6 43
e 6 44
e 6 47
e 6 54
e 6 58
e 6 60
e 6 63
e 6 64
e 6 70
e 6 73
e 6 77
e 6 83
e 6 84
e 6 86
e 6 87
e 6 89
e 6 97
e 7 9
e 7 11
e 7 12
e 7 15
e 7 19
e 7 23
e 7 25
e 7 34
e 7 38
e 7 39
e 7 40
e 7 41
e 7 50
e 7 52
e 7 59
e 7 62
e 7 65
e 7 71
e 7 72
e 7 74
e 7 83
e 7 84
e 7 86
e 7 87
e 7 90
e 7 91
e 7 92
e 7 97
e 7 100
e 8 10
e 8 18
e 8 19
e 8 20
e 8 21
e 8 22
e 8 26
e 8 31
e 8 35
e 8 36
e 8 38
e 8 40
e 8 43
e 8 45
e 8 46
e 8 48
e 8 51
e 8 52
e 8 54
e 8 55
e 8 56
e 8 61
e 8 67
e 8 68
e 8 70
e 8 73
e 8 80
e 8 81
e 8 83
e 8 85
e 8 91
e 8 92
e 8 93
e 8 94
e 8 95
e 8 96
e 8 99
e 8 100
e 9 18
e 9 19
e 9 26
e 9 30
e 9 32
e 9 40
e 9 41
e 9 48
e 9 52
e 9 56
e 9 70
e 9 71
e 9 74
e 9 79
e 9 82
e 9 86
e 9 88
e 9 90
e 9 92
e 10 11
e 10 14
e 10 18
e 10 24
e 10 25
e 10 29
e 10 32
e 10 36
e 10 47
e 10 51
e 10 52
e 10 57
e 10 60
e 10 61
e 10 62
e 10 71
e 10 77
e 10 78
e 10 81
e 10 82
e 10 83
e 10 84
e 10 85
e 10 86
e 10 88
e 10 93
e 10 94
e 10 96
e 11 17
e 11 20
e 11 22
e 11 26
e 11 27
e 11 40
e 11 43
e 11 46
e 11 48
e 11 49
e 11 54
e 11 58
e 11 59
e 11 62
e 11 63
e 11 65
e 11 66
e 11 67
e 11 69
e 11 76
e 11 86
e 11 88
e 11 96
e 11 97
e 12 13
e 12 15
e 12 18
e 12 21
e 12 25
e 12 35
e 12 45
e 12 47
e 12 49
e 12 52
e 12 61
e 12 65
e 12 68
e 12 71
e 12 78
e 12 79
e 12 82
e 12 84
e 12 88
e 12 92
e 12 100
e 13 14
e 13 19
e 13 21
e 13 22
e 13 23
e 13 25
e 13 26
e 13 28
e 13 31
e 13 35
e 13 36
e 13 42
e 13 46
e 13 53
e 13 60
e 13 64
e 13 67
e 13 76
e 13 86
e 13 95
e 14 17
e 14 19
e 14 22
e 14 27
e 14 29
e 14 32
e 14 34
e 14 36
e 14 38
e 14 44
e 14 46
e 14 49
e 14 62
e 14 66
e 14 68
e 14 69
e 14 73
e 14 77
e 14 79
e 14 90
e 14 91
e 14 92
e 15 20
e 15 26
e 15 27
e 15 30
e 15 32
e 15 38
e 15 39
e 15 41
e 15 50
e 15 55
e 15 58
e 15 60
e 15 64
e 15 65
e 15 66
e 15 67
e 15 69
e 15 71
e 15 74
e 15 77
e 15 81
e 15 84
e 15 85
e 15 89
e 15 91
e 15 92
e 15 94
e 15 95
e 15 97
e 15 98
e 16 20
e 16 23
e 16 24
e 16 25
e 16 28
e 16 32
e 16 35
e 16 38
e 16 48
e 16 50
e 16 55
e 16 58
e 16 61
e 16 78
e 16 79
e 16 80
e 16 81
e 16 83
e 16 84
e 16 88
e 16 96
e 17 32
e 17 33
e 17 35
e 17 36
e 17 39
e 17 40
e 17 41
e 17 49
e 17 52
e 17 55
e 17 63
e 17 65
e 17 70
e 17 71
e 17 72
e 17 81
e 17 82
e 17 84
e 17 91
e 17 93
e 17 94
e 17 99
e 17 100
e 18 20
e 18 23
e 18 26
e 18 28
e 18 34
e 18 42
e 18 45
e 18 54
e 18 56
e 18 59
e 18 60
e 18 66
e 18 67
e 18 68
e 18 69
e 18 70
e 18 76
e 18 81
e 18 85
e 18 90
e 18 93
e 18 94
e 18 95
e 18 96
e 19 20
e 19 21
e 19 28
e 19 31
e 19 45
e 19 52
e 19 53
e 19 55
e 19 62
e 19 64
e 19 65
e 19 66
e 19 69
e 19 74
e 19 75
e 19 81
e 19 84
e 19 86
e 19 92
e 19 93
e 19 97
e 20 25
e 20 28
e 20 34
e 20 35
e 20 36
e 20 42
e 20 44
e 20 45
e 20 46
e 20 47
e 20 50
e 20 53
e 20 58
e 20 59
e 20 60
e 20 65
e 20 66
e 20 78
e 20 82
e 20 83
e 20 88
e 20 89
e 20 91
e 20 93
e 20 97
e 21 29
e 21 30
e 21 33
e 21 38
e 21 42
e 21 44
e 21 45
e 21 51
e 21 55
e 21 57
e 21 60
e 21 64
e 21 70
e 21 73
e 21 75
e 21 76
e 21 78
e 21 79
e 21 80
e 21 82
e 21 83
e 21 84
e 21 89
e 21 90
e 22 25
e 22 28
e 22 31
e 22 32
e 22 35
e 22 36
e 22 38
e 22 44
e 22 45
e 22 46
e 22 59
e 22 60
e 22 67
e 22 73
e 22 76
e 22 77
e 22 78
e 22 81
e 22 85
e 22 88
e 22 89
e 22 90
e 22 92
e 22 93
e 22 96
e 22 97
e 22 99
e 22 100
e 23 26
e 23 28
e 23 35
e 23 37
e 23 44
e 23 50
e 23 63
e 23 64
e 23 65
e 23 68
e 23 69
e 23 72
e 23 73
e 23 76
e 23 78
e 23 81
e 23 90
e 23 93
e 23 95
e 24 25
e 24 35
e 24 39
e 24 41
e 24 44
e 24 49
e 24 57
e 24 60
e 24 63
e 24 68
e 24 71
e 24 73
e 24 75
e 24 77
e 24 79
e 24 80
e 24 81
e 24 82
e 24 83
e 24 89
e 24 90
e 24 93
e 24 95
e 25 36
e 25 44
e 25 52
e 25 58
e 25 59
e 25 64
e 25 69
e 25 73
e 25 76
e 25 79
e 25 88
e 25 90
e 25 94
e 25 98
e 25 99
e 26 28
e 26 29
e 26 32
e 26 37
e 26 41
e 26 45
e 26 47
e 26 50
e 26 58
e 26 61
e 26 66
e 26 69
e 26 78
e 26 81
e 26 86
e 26 98
e 26 99
e 26 100
e 27 31
e 27 34
e 27 35
e 27 37
e 27 43
e 27 44
e 27 46
e 27 55
e 27 58
e 27 59
e 27 60
e 27 64
e 27 66
e 27 72
e 27 77
e 27 78
e 27 80
e 27 83
e 27 84
e 27 94
e 27 95
e 27 99
e 27 100
e 28 31
e 28 34
e 28 36
e 28 37
e 28 40
e 28 43
e 28 44
e 28 52
e 28 56
e 28 61
e 28 63
e 28 64
e 28 68
e 28 69
e 28 71
e 28 75
e 28 76
e 28 78
e 28 80
e 28 82
e 28 83
e 28 84
e 28 89
e 28 90
e 28 91
e 28 94
e 28 96
e 28 97
e 28 99
e 29 30
e 29 32
e 29 33
e 29 38
e 29 40
e 29 42
e 29 47
e 29 49
e 29 50
e 29 51
e 29 53
e 29 54
e 29 56
e 29 57
e 29 59
e 29 61
e 29 63
e 29 69
e 29 71
e 29 83
e 29 84
e 29 85
e 29 86
e 29 91
e 29 92
e 29 93
e 29 94
e 29 96
e 29 100
e 30 33
e 30 37
e 30 42
e 30 43
e 30 44
e 30 49
e 30 52
e 30 53
e 30 56
e 30 57
e 30 62
e 30 66
e 30 71
e 30 73
e 30 74
e 30 75
e 30 76
e 30 77
e 30 78
e 30 79
e 30 80
e 30 90
e 30 93
e 30 99
e 31 32
e 31 34
e 31 35
e 31 37
e 31 38
e 31 48
e 31 49
e 31 53
e 31 63
e 31 66
e 31 67
e 31 69
e 31 73
e 31 79
e 31 82
e 31 83
e 31 86
e 31 89
e 31 90
e 31 94
e 31 97
e 32 34
e 32 35
e 32 38
e 32 40
e 32 47
e 32 55
e 32 59
e 32 63
e 32 69
e 32 70
e 32 71
e 32 72
e 32 73
e 32 74
e 32 78
e 32 89
e 32 93
e 32 95
e 32 97
e 32 98
e 33 34
e 33 37
e 33 38
e 33 41
e 33 42
e 33 47
e 33 50
e 33 51
e 33 53
e 33 54
e 33 55
e 33 62
e 33 63
e 33 66
e 33 68
e 33 80
e 33 90
e 33 92
e 33 93
e 33 95
e 33 97
e 33 98
e 33 100
e 34 41
e 34 42
e 34 43
e 34 50
e 34 53
e 34 55
e 34 57
e 34 62
e 34 64
e 34 65
e 34 69
e 34 72
e 34 76
e 34 82
e 34 86
e 34 89
e 34 91
e 34 96
e 34 97
e 34 99
e 34 100
e 35 36
e 35 37
e 35 45
e 35 50
e 35 53
e 35 54
e 35 55
e 35 57
e 35 64
e 35 67
e 35 69
e 35 71
e 35 73
e 35 74
e 35 77
e 35 78
e 35 79
e 35 93
e 35 94
e 35 95
e 36 39
e 36 41
e 36 43
e 36 47
e 36 53
e 36 60
e 36 61
e 36 69
e 36 70
e 36 76
e 36 79
e 36 80
e 36 83
e 36 84
e 36 88
e 36 90
e 36 96
e 36 97
e 36 98
e 36 99
e 37 38
e 37 40
e 37 42
e 37 45
e 37 54
e 37 56
e 37 57
e 37 62
e 37 71
e 37 72
e 37 75
e 37 76
e 37 81
e 37 84
e 37 87
e 37 88
e 37 92
e 37 94
e 37 95
e 38 51
e 38 54
e 38 55
e 38 62
e 38 69
e 38 71
e 38 80
e 38 83
e 38 85
e 38 86
e 38 88
e 38 89
e 38 93
e 38 94
e 38 97
e 38 98
e 39 40
e 39 42
e 39 43
e 39 44
e 39 47
e 39 52
e 39 58
e 39 59
e 39 62
e 39 63
e 39 64
e 39 66
e 39 71
e 39 76
e 39 77
e 39 78
e 39 83
e 39 92
e 39 97
e 39 100
e 40 46
e 40 49
e 40 50
e 40 58
e 40 62
e 40 68
e 40 82
e 40 87
e 40 89
e 40 95
e 41 45
e 41 46
e 41 53
e 41 58
e 41 59
e 41 62
e 41 64
e 41 72
e 41 77
e 41 80
e 41 81
e 41 84
e 41 85
e 41 86
e 41 87
e 41 88
e 41 91
e 41 94
e 41 96
e 42 48
e 42 50
e 42 61
e 42 62
e 42 64
e 42 72
e 42 74
e 42 76
e 42 78
e 42 84
e 42 86
e 42 87
e 42 89
e 42 90
e 42 96
e 42 100
e 43 45
e 43 46
e 43 47
e 43 49
e 43 50
e 43 51
e 43 55
e 43 59
e 43 60
e 43 61
e 43 65
e 43 67
e 43 72
e 43 74
e 43 80
e 43 84
e 43 88
e 43 91
e 43 94
e 43 97
e 43 98
e 44 47
e 44 51
e 44 55
e 44 60
e 44 64
e 44 68
e 44 74
e 44 76
e 44 77
e 44 79
e 44 82
e 44 85
e 44 96
e 44 99
e 45 46
e 45 47
e 45 57
e 45 59
e 45 68
e 45 69
e 45 78
e 45 80
e 45 85
e 45 86
e 45 87
e 45 94
e 45 96
e 45 97
e 45 99
e 46 49
e 46 52
e 46 53
e 46 60
e 46 67
e 46 68
e 46 69
e 46 71
e 46 73
e 46 76
e 46 78
e 46 81
e 46 83
e 46 84
e 46 94
e 46 100
e 47 50
e 47 56
e 47 75
e 47 77
e 47 85
e 47 87
e 47 89
e 47 95
e 47 99
e 48 52
e 48 53
e 48 62
e 48 63
e 48 66
e 48 69
e 48 71
e 48 72
e 48 74
e 48 75
e 48 81
e 48 82
e 48 88
e 48 98
e 48 99
e 49 50
e 49 53
e 49 54
e 49 66
e 49 74
e 49 75
e 49 78
e 49 80
e 49 82
e 49 83
e 49 84
e 49 87
e 49 90
e 49 92
e 49 93
e 49 96
e 49 99
e 50 54
e 50 55
e 50 59
e 50 64
e 50 65
e 50 68
e 50 69
e 50 70
e 50 72
e 50 81
e 50 82
e 50 85
e 50 91
e 50 93
e 50 94
e 50 99
e 51 54
e 51 57
e 51 58
e 51 60
e 51 63
e 51 65
e 51 67
e 51 72
e 51 74
e 51 75
e 51 76
e 51 77
e 51 79
e 51 81
e 51 82
e 51 84
e 51 88
e 51 95
e 51 96
e 51 97
e 51 99
e 51 100
e 52 54
e 52 71
e 52 72
e 52 77
e 52 78
e 52 80
e 52 83
e 52 85
e 52 86
e 52 88
e 52 90
e 52 94
e 52 95
e 52 99
e 53 57
e 53 60
e 53 61
e 53 62
e 53 66
e 53 71
e 53 78
e 53 79
e 53 80
e 53 82
e 53 83
e 53 85
e 53 88
e 53 97
e 53 100
e 54 56
e 54 59
e 54 60
e 54 62
e 54 65
e 54 66
e 54 70
e 54 82
e 54 84
e 54 85
e 54 90
e 54 94
e 54 97
e 54 98
e 55 57
e 55 58
e 55 61
e 55 63
e 55 64
e 55 66
e 55 68
e 55 70
e 55 71
e 55 76
e 55 78
e 55 95
e 55 96
e 56 64
e 56 66
e 56 68
e 56 69
e 56 72
e 56 73
e 56 79
e 56 81
e 56 86
e 56 87
e 56 90
e 56 91
e 56 92
e 56 96
e 56 98
e 57 59
e 57 61
e 57 62
e 57 63
e 57 66
e 57 76
e 57 82
e 57 87
e 57 89
e 57 90
e 57 97
e 57 98
e 57 99
e 58 59
e 58 61
e 58 64
e 58 66
e 58 67
e 58 71
e 58 72
e 58 74
e 58 75
e 58 76
e 58 77
e 58 80
e 58 86
e 58 91
e 58 92
e 58 93
e 58 96
e 58 99
e 59 60
e 59 71
e 59 74
e 59 77
e 59 80
e 59 90
e 59 94
e 59 95
e 59 97
e 59 99
e 60 65
e 60 81
e 60 88
e 60 90
e 60 93
e 60 98
e 61 62
e 61 64
e 61 65
e 61 66
e 61 71
e 61 72
e 61 73
e 61 75
e 61 76
e 61 78
e 61 84
e 61 85
e 61 87
e 61 90
e 61 94
e 61 97
e 61 98
e 62 66
e 62 68
e 62 77
e 62 78
e 62 86
e 62 88
e 62 89
e 62 92
e 62 100
e 63 64
e 63 66
e 63 68
e 63 75
e 63 77
e 63 80
e 63 81
e 63 82
e 63 84
e 63 87
e 63 88
e 63 90
e 63 94
e 63 98
e 63 100
e 64 65
e 64 72
e 64 73
e 64 81
e 64 85
e 64 91
e 64 92
e 64 95
e 64 96
e 64 99
e 64 100
e 65 66
e 65 67
e 65 69
e 65 70
e 65 79
e 65 81
e 65 82
e 65 83
e 65 87
e 65 88
e 65 89
e 65 91
e 65 97
e 65 99
e 65 100
e 66 70
e 66 75
e 66 81
e 66 84
e 66 88
e 66 100
e 67 70
e 67 72
e 67 75
e 67 77
e 67 82
e 67 83
e 67 87
e 67 93
e 67 99
e 68 70
e 68 71
e 68 89
e 68 92
e 68 94
e 68 96
e 68 97
e 68 99
e 68 100
e 69 73
e 69 74
e 69 75
e 69 78
e 69 80
e 69 83
e 69 84
e 69 93
e 69 98
e 70 73
e 70 78
e 70 82
e 70 84
e 70 86
e 70 88
e 70 95
e 70 96
e 70 99
e 71 72
e 71 81
e 71 84
e 71 86
e 71 91
e 71 92
e 71 93
e 71 94
e 71 100
e 72 75
e 72 77
e 72 79
e 72 84
e 72 85
e 72 92
e 72 95
e 72 98
e 72 99
e 72 100
e 73 74
e 73 75
e 73 76
e 73 78
e 73 82
e 73 85
e 73 90
e 73 95
e 73 96
e 73 98
e 73 99
e 74 75
e 74 78
e 74 81
e 74 82
e 74 85
e 74 89
e 74 90
e 74 91
e 74 92
e 74 93
e 74 97
e 74 98
e 75 76
e 75 80
e 75 86
e 75 91
e 75 92
e 75 94
e 75 95
e 75 96
e 75 99
e 76 80
e 76 82
e 76 84
e 76 85
e 76 88
e 76 92
e 76 93
e 76 96
e 76 99
e 77 78
e 77 79
e 77 81
e 77 83
e 77 88
e 77 95
e 77 97
e 78 88
e 78 89
e 78 96
e 79 81
e 79 85
e 79 92
e 79 93
e 79 97
e 79 98
e 79 99
e 80 82
e 80 84
e 80 86
e 80 87
e 80 90
e 80 94
e 80 99
e 81 86
e 81 94
e 82 87
e 82 96
e 83 86
e 83 88
e 83 90
e 83 93
e 83 96
e 83 97
e 83 99
e 84 86
e 84 88
e 84 89
e 84 90
e 84 93
e 84 94
e 84 96
e 84 100
e 85 86
e 85 88
e 85 89
e 85 94
e 85 96
e 85 98
e 85 100
e 86 97
e 87 95
e 87 96
e 87 98
e 88 90
e 88 97
e 88 98
e 89 94
e 89 96
e 89 99
e 90 94
e 91 93
e 91 98
e 91 99
e 92 96
e 92 98
e 92 99
e 93 94
e 93 100
e 94 97
e 94 98
e 95 99
e 96 97
e 97 98
